(declare-const X String)
; \d+,?\d+\$?
(assert (str.in_re X (re.++ (re.+ (re.range "0" "9")) (re.opt (str.to_re ",")) (re.+ (re.range "0" "9")) (re.opt (str.to_re "$")) (str.to_re "\u{a}"))))
; \d\d?\d?\.\d\d?\d?\.\d\d?\d?\.\d\d?\d?
(assert (not (str.in_re X (re.++ (re.range "0" "9") (re.opt (re.range "0" "9")) (re.opt (re.range "0" "9")) (str.to_re ".") (re.range "0" "9") (re.opt (re.range "0" "9")) (re.opt (re.range "0" "9")) (str.to_re ".") (re.range "0" "9") (re.opt (re.range "0" "9")) (re.opt (re.range "0" "9")) (str.to_re ".") (re.range "0" "9") (re.opt (re.range "0" "9")) (re.opt (re.range "0" "9")) (str.to_re "\u{a}")))))
; \x5BStaticHost\x3AFROM\x3Acs\x2Eshopperreports\x2Ecommedia\x2Etop-banners\x2Ecom\x2Fbar_pl\x2Fb\.fcgi
(assert (not (str.in_re X (str.to_re "[StaticHost:FROM:cs.shopperreports.commedia.top-banners.com/bar_pl/b.fcgi\u{a}"))))
; /filename=[^\n]*\x2ejnlp/i
(assert (not (str.in_re X (re.++ (str.to_re "/filename=") (re.* (re.comp (str.to_re "\u{a}"))) (str.to_re ".jnlp/i\u{a}")))))
; User-Agent\x3a\s+Host\x3A\s+proxystylesheet=Excitefhfksjzsfu\x2fahm\.uqs
(assert (str.in_re X (re.++ (str.to_re "User-Agent:") (re.+ (re.union (str.to_re " ") (str.to_re "\u{9}") (str.to_re "\u{a}") (str.to_re "\u{c}") (str.to_re "\u{d}"))) (str.to_re "Host:") (re.+ (re.union (str.to_re " ") (str.to_re "\u{9}") (str.to_re "\u{a}") (str.to_re "\u{c}") (str.to_re "\u{d}"))) (str.to_re "proxystylesheet=Excitefhfksjzsfu/ahm.uqs\u{a}"))))
(check-sat)

(exit)
